NAME : tsp_168_sol.txt
COMMENT : OR-Tools Guided Local Search
TYPE : TOUR
DIMENSION : 50
COST : 5968
STATUS : ROUTING_SUCCESS
GAP : 0.00% (Reference Solution)
TOUR_SECTION
1
29
42
18
28
23
46
7
22
5
31
2
12
39
30
14
8
24
43
21
41
16
3
33
4
48
34
45
37
49
50
17
36
19
40
35
25
26
44
10
20
27
11
47
13
38
9
32
15
6
-1
